c ind 11 12 16 2 25 26 28 30 32 35 0
c ind 42 7 8 0
p cnf 52 146
-1 2 0
-1 3 0
-10 -11 12 0
-10 -12 11 0
-13 -14 15 0
-13 14 17 0
-14 -11 2 0
-14 -2 11 0
-15 -16 2 0
-15 -2 16 0
-17 -18 20 0
-17 18 41 0
-18 19 0
-18 5 0
-19 -2 7 0
-19 -7 2 0
-20 -21 33 0
-20 21 43 0
-21 22 0
-21 31 0
-22 23 0
-22 29 0
-23 24 0
-23 27 0
-24 -25 26 0
-24 -26 25 0
-26 0
-27 -26 28 0
-27 -28 26 0
-29 -26 30 0
-29 -30 26 0
-3 -4 13 0
-3 4 41 0
-31 -26 32 0
-31 -32 26 0
-33 -34 36 0
-33 34 41 0
-34 -2 35 0
-34 -35 2 0
-36 37 0
-36 40 0
-37 38 0
-37 40 0
-38 39 0
-38 40 0
-39 -16 26 0
-39 -26 16 0
-4 5 9 0
-40 -26 26 0
-41 -16 42 0
-41 -42 16 0
-43 -44 36 0
-43 44 48 0
-44 31 0
-44 45 0
-45 29 0
-45 46 0
-46 27 0
-46 47 0
-47 -2 25 0
-47 -25 2 0
-48 -49 15 0
-48 49 41 0
-49 31 0
-49 50 0
-5 -6 0
-50 29 0
-50 51 0
-51 24 0
-51 52 0
-52 -2 28 0
-52 -28 2 0
-6 -7 8 0
-6 -8 7 0
-9 -10 0
1 -2 -3 0
1 0
10 -11 -12 0
10 11 12 0
13 -14 -15 0
13 -15 -17 0
13 14 -17 0
14 -11 -2 0
14 11 2 0
15 -16 -2 0
15 16 2 0
17 -18 -20 0
17 -20 -41 0
17 18 -41 0
18 -5 -19 0
19 -7 -2 0
19 7 2 0
2 0
20 -21 -33 0
20 -33 -43 0
20 21 -43 0
21 -22 -31 0
22 -23 -29 0
23 -24 -27 0
24 -25 -26 0
24 25 26 0
27 -28 -26 0
27 28 26 0
29 -30 -26 0
29 30 26 0
3 -13 -41 0
3 -4 -13 0
3 4 -41 0
31 -32 -26 0
31 32 26 0
33 -34 -36 0
33 -36 -41 0
33 34 -41 0
34 -35 -2 0
34 35 2 0
36 -37 -40 0
37 -38 -40 0
38 -39 -40 0
39 -16 -26 0
39 16 26 0
4 -5 0
4 -9 0
40 -26 -26 0
40 26 26 0
41 -16 -42 0
41 16 42 0
43 -36 -48 0
43 -44 -36 0
43 44 -48 0
44 -45 -31 0
45 -46 -29 0
46 -47 -27 0
47 -25 -2 0
47 25 2 0
48 -15 -41 0
48 -49 -15 0
48 49 -41 0
49 -50 -31 0
5 6 0
50 -51 -29 0
51 -24 -52 0
52 -28 -2 0
52 28 2 0
6 -7 -8 0
6 7 8 0
9 10 0
